\ Generated by MPModelProtoExporter
\   Name             : 
\   Format           : Free
\   Constraints      : 292
\   Variables        : 37
\     Binary         : 0
\     Integer        : 0
\     Continuous     : 37
Maximize
 Obj: -5 _1 -1 _2 -1 _3 -1 _4 -1 _5 -1 _6 -1 _7 -1 _8 -1 _9 +1 _0CC_1_2_3 +1 _0CCT1_2 +1 _0CCT2_3 +1 _0CN_4 +1 _0CT_5 +1 _0IT1_6 +1 _0IT2_7 +1 _0K_8 +1 _0KT_9 +1 _0MC_1_4_5 +1 _0MI_1_6 +1 _0MI_IDX_1_7 +1 _0MK_1_8 +1 _0T_1_9 
Subject to
 Mono_Ineq.__H(0CC_1_2_3)____H(0CC): -1 _0CC +1 _0CC_1_2_3  >= 0
 Mono_Ineq.__H(0CC_1_2_3)____H(1): -1 _1 +1 _0CC_1_2_3  >= 0
 Mono_Ineq.__H(0CC_1_2_3)____H(2): -1 _2 +1 _0CC_1_2_3  >= 0
 Mono_Ineq.__H(0CC_1_2_3)____H(3): -1 _3 +1 _0CC_1_2_3  >= 0
 Additivity_Ineq.__H(0CC_1_2_3)____H(0CC)___H(1)___H(2)___H(3): -1 _1 -1 _2 -1 _3 -1 _0CC +1 _0CC_1_2_3  <= 0
 Mono_Ineq.__H(0CCT1_2)____H(0CCT1): -1 _0CCT1 +1 _0CCT1_2  >= 0
 Mono_Ineq.__H(0CCT1_2)____H(2): -1 _2 +1 _0CCT1_2  >= 0
 Additivity_Ineq.__H(0CCT1_2)____H(0CCT1)___H(2): -1 _2 -1 _0CCT1 +1 _0CCT1_2  <= 0
 Mono_Ineq.__H(0CCT2_3)____H(0CCT2): -1 _0CCT2 +1 _0CCT2_3  >= 0
 Mono_Ineq.__H(0CCT2_3)____H(3): -1 _3 +1 _0CCT2_3  >= 0
 Additivity_Ineq.__H(0CCT2_3)____H(0CCT2)___H(3): -1 _3 -1 _0CCT2 +1 _0CCT2_3  <= 0
 Mono_Ineq.__H(0CN_4)____H(0CN): -1 _0CN +1 _0CN_4  >= 0
 Mono_Ineq.__H(0CN_4)____H(4): -1 _4 +1 _0CN_4  >= 0
 Additivity_Ineq.__H(0CN_4)____H(0CN)___H(4): -1 _4 -1 _0CN +1 _0CN_4  <= 0
 Mono_Ineq.__H(0CT_5)____H(0CT): -1 _0CT +1 _0CT_5  >= 0
 Mono_Ineq.__H(0CT_5)____H(5): -1 _5 +1 _0CT_5  >= 0
 Additivity_Ineq.__H(0CT_5)____H(0CT)___H(5): -1 _5 -1 _0CT +1 _0CT_5  <= 0
 Mono_Ineq.__H(0IT1_6)____H(0IT1): -1 _0IT1 +1 _0IT1_6  >= 0
 Mono_Ineq.__H(0IT1_6)____H(6): -1 _6 +1 _0IT1_6  >= 0
 Additivity_Ineq.__H(0IT1_6)____H(0IT1)___H(6): -1 _6 -1 _0IT1 +1 _0IT1_6  <= 0
 Mono_Ineq.__H(0IT2_7)____H(0IT2): -1 _0IT2 +1 _0IT2_7  >= 0
 Mono_Ineq.__H(0IT2_7)____H(7): -1 _7 +1 _0IT2_7  >= 0
 Additivity_Ineq.__H(0IT2_7)____H(0IT2)___H(7): -1 _7 -1 _0IT2 +1 _0IT2_7  <= 0
 Mono_Ineq.__H(0K_8)____H(0K): -1 _0K +1 _0K_8  >= 0
 Mono_Ineq.__H(0K_8)____H(8): -1 _8 +1 _0K_8  >= 0
 Additivity_Ineq.__H(0K_8)____H(0K)___H(8): -1 _8 -1 _0K +1 _0K_8  <= 0
 Mono_Ineq.__H(0KT_9)____H(0KT): -1 _0KT +1 _0KT_9  >= 0
 Mono_Ineq.__H(0KT_9)____H(9): -1 _9 +1 _0KT_9  >= 0
 Additivity_Ineq.__H(0KT_9)____H(0KT)___H(9): -1 _9 -1 _0KT +1 _0KT_9  <= 0
 Mono_Ineq.__H(0MC_1_4_5)____H(0MC): -1 _0MC +1 _0MC_1_4_5  >= 0
 Mono_Ineq.__H(0MC_1_4_5)____H(1): -1 _1 +1 _0MC_1_4_5  >= 0
 Mono_Ineq.__H(0MC_1_4_5)____H(5): -1 _5 +1 _0MC_1_4_5  >= 0
 Mono_Ineq.__H(0MC_1_4_5)____H(4): -1 _4 +1 _0MC_1_4_5  >= 0
 Additivity_Ineq.__H(0MC_1_4_5)____H(0MC)___H(1)___H(5)___H(4): -1 _1 -1 _4 -1 _5 -1 _0MC +1 _0MC_1_4_5  <= 0
 Mono_Ineq.__H(0MI_1_6)____H(0MI): -1 _0MI +1 _0MI_1_6  >= 0
 Mono_Ineq.__H(0MI_1_6)____H(1): -1 _1 +1 _0MI_1_6  >= 0
 Mono_Ineq.__H(0MI_1_6)____H(6): -1 _6 +1 _0MI_1_6  >= 0
 Additivity_Ineq.__H(0MI_1_6)____H(0MI)___H(1)___H(6): -1 _1 -1 _6 -1 _0MI +1 _0MI_1_6  <= 0
 Mono_Ineq.__H(0MI_IDX_1_7)____H(0MI_IDX): -1 _0MI_IDX +1 _0MI_IDX_1_7  >= 0
 Mono_Ineq.__H(0MI_IDX_1_7)____H(1): -1 _1 +1 _0MI_IDX_1_7  >= 0
 Mono_Ineq.__H(0MI_IDX_1_7)____H(7): -1 _7 +1 _0MI_IDX_1_7  >= 0
 Additivity_Ineq.__H(0MI_IDX_1_7)____H(0MI_IDX)___H(1)___H(7): -1 _1 -1 _7 -1 _0MI_IDX +1 _0MI_IDX_1_7  <= 0
 Mono_Ineq.__H(0MK_1_8)____H(0MK): -1 _0MK +1 _0MK_1_8  >= 0
 Mono_Ineq.__H(0MK_1_8)____H(1): -1 _1 +1 _0MK_1_8  >= 0
 Mono_Ineq.__H(0MK_1_8)____H(8): -1 _8 +1 _0MK_1_8  >= 0
 Additivity_Ineq.__H(0MK_1_8)____H(0MK)___H(1)___H(8): -1 _1 -1 _8 -1 _0MK +1 _0MK_1_8  <= 0
 Mono_Ineq.__H(0T_1_9)____H(0T): -1 _0T +1 _0T_1_9  >= 0
 Mono_Ineq.__H(0T_1_9)____H(9): -1 _9 +1 _0T_1_9  >= 0
 Mono_Ineq.__H(0T_1_9)____H(1): -1 _1 +1 _0T_1_9  >= 0
 Additivity_Ineq.__H(0T_1_9)____H(0T)___H(9)___H(1): -1 _1 -1 _9 -1 _0T +1 _0T_1_9  <= 0
 Statistics_Ineq._1__1___h(0CC_1_2_3)___0___h(1)____1___log2(135086.0)_|_1_|_CC.MOVIE_ID: +1 _0CC_1_2_3  <= 17.0435
 Statistics_Ineq._2__2___h(0CC_1_2_3)___1___h(1)____2___log2(467.1509392048784)_|_2_|_CC.MOVIE_ID: -1 _1 +2 _0CC_1_2_3  <= 17.7355
 Statistics_Ineq._3__3___h(0CC_1_2_3)___2___h(1)____3___log2(72.71749196120255)_|_3_|_CC.MOVIE_ID: -2 _1 +3 _0CC_1_2_3  <= 18.5527
 Statistics_Ineq._4__4___h(0CC_1_2_3)___3___h(1)____4___log2(29.100069229651567)_|_4_|_CC.MOVIE_ID: -3 _1 +4 _0CC_1_2_3  <= 19.4518
 Statistics_Ineq._5__5___h(0CC_1_2_3)___4___h(1)____5___log2(16.90896668112568)_|_5_|_CC.MOVIE_ID: -4 _1 +5 _0CC_1_2_3  <= 20.3986
 Statistics_Ineq._6__6___h(0CC_1_2_3)___5___h(1)____6___log2(11.809448738964399)_|_6_|_CC.MOVIE_ID: -5 _1 +6 _0CC_1_2_3  <= 21.3712
 Statistics_Ineq._7__7___h(0CC_1_2_3)___6___h(1)____7___log2(9.150848663368562)_|_7_|_CC.MOVIE_ID: -6 _1 +7 _0CC_1_2_3  <= 22.3573
 Statistics_Ineq._8__8___h(0CC_1_2_3)___7___h(1)____8___log2(7.562134910129887)_|_8_|_CC.MOVIE_ID: -7 _1 +8 _0CC_1_2_3  <= 23.3503
 Statistics_Ineq._9__9___h(0CC_1_2_3)___8___h(1)____9___log2(6.521503205103986)_|_9_|_CC.MOVIE_ID: -8 _1 +9 _0CC_1_2_3  <= 24.3468
 Statistics_Ineq._10__10___h(0CC_1_2_3)___9___h(1)____10___log2(5.79379395388838)_|_10_|_CC.MOVIE_ID: -9 _1 +10 _0CC_1_2_3  <= 25.3451
 Statistics_Ineq._11__h(0CC_1_2_3)___h(1)____log2(2.0)_|_inf_|_CC.MOVIE_ID: -1 _1 +1 _0CC_1_2_3  <= 1
 Statistics_Ineq._12__1___h(0CC_1_2_3)___0___h(2)____1___log2(135086.0)_|_1_|_CC.SUBJECT_ID: +1 _0CC_1_2_3  <= 17.0435
 Statistics_Ineq._13__2___h(0CC_1_2_3)___1___h(2)____2___log2(99000.43689802586)_|_2_|_CC.SUBJECT_ID: -1 _2 +2 _0CC_1_2_3  <= 33.1903
 Statistics_Ineq._14__3___h(0CC_1_2_3)___2___h(2)____3___log2(90994.90107952553)_|_3_|_CC.SUBJECT_ID: -2 _2 +3 _0CC_1_2_3  <= 49.4205
 Statistics_Ineq._15__4___h(0CC_1_2_3)___3___h(2)____4___log2(88151.72860588632)_|_4_|_CC.SUBJECT_ID: -3 _2 +4 _0CC_1_2_3  <= 65.7108
 Statistics_Ineq._16__5___h(0CC_1_2_3)___4___h(2)____5___log2(86967.25010874706)_|_5_|_CC.SUBJECT_ID: -4 _2 +5 _0CC_1_2_3  <= 82.0409
 Statistics_Ineq._17__6___h(0CC_1_2_3)___5___h(2)____6___log2(86434.72190758778)_|_6_|_CC.SUBJECT_ID: -5 _2 +6 _0CC_1_2_3  <= 98.3959
 Statistics_Ineq._18__7___h(0CC_1_2_3)___6___h(2)____7___log2(86184.4236853134)_|_7_|_CC.SUBJECT_ID: -6 _2 +7 _0CC_1_2_3  <= 114.766
 Statistics_Ineq._19__8___h(0CC_1_2_3)___7___h(2)____8___log2(86063.2304086529)_|_8_|_CC.SUBJECT_ID: -7 _2 +8 _0CC_1_2_3  <= 131.145
 Statistics_Ineq._20__9___h(0CC_1_2_3)___8___h(2)____9___log2(86003.26005769554)_|_9_|_CC.SUBJECT_ID: -8 _2 +9 _0CC_1_2_3  <= 147.529
 Statistics_Ineq._21__10___h(0CC_1_2_3)___9___h(2)____10___log2(85973.08190165195)_|_10_|_CC.SUBJECT_ID: -9 _2 +10 _0CC_1_2_3  <= 163.916
 Statistics_Ineq._22__h(0CC_1_2_3)___h(2)____log2(85941.0)_|_inf_|_CC.SUBJECT_ID: -1 _2 +1 _0CC_1_2_3  <= 16.3911
 Statistics_Ineq._23__1___h(0CC_1_2_3)___0___h(3)____1___log2(135086.0)_|_1_|_CC.STATUS_ID: +1 _0CC_1_2_3  <= 17.0435
 Statistics_Ineq._24__2___h(0CC_1_2_3)___1___h(3)____2___log2(113197.57285383817)_|_2_|_CC.STATUS_ID: -1 _3 +2 _0CC_1_2_3  <= 33.577
 Statistics_Ineq._25__3___h(0CC_1_2_3)___2___h(3)____3___log2(110898.57004149652)_|_3_|_CC.STATUS_ID: -2 _3 +3 _0CC_1_2_3  <= 50.2766
 Statistics_Ineq._26__4___h(0CC_1_2_3)___3___h(3)____4___log2(110561.71737264829)_|_4_|_CC.STATUS_ID: -3 _3 +4 _0CC_1_2_3  <= 67.018
 Statistics_Ineq._27__5___h(0CC_1_2_3)___4___h(3)____5___log2(110506.0656192398)_|_5_|_CC.STATUS_ID: -4 _3 +5 _0CC_1_2_3  <= 83.7688
 Statistics_Ineq._28__6___h(0CC_1_2_3)___5___h(3)____6___log2(110496.23818705058)_|_6_|_CC.STATUS_ID: -5 _3 +6 _0CC_1_2_3  <= 100.522
 Statistics_Ineq._29__7___h(0CC_1_2_3)___6___h(3)____7___log2(110494.42699393016)_|_7_|_CC.STATUS_ID: -6 _3 +7 _0CC_1_2_3  <= 117.275
 Statistics_Ineq._30__8___h(0CC_1_2_3)___7___h(3)____8___log2(110494.08315508271)_|_8_|_CC.STATUS_ID: -7 _3 +8 _0CC_1_2_3  <= 134.029
 Statistics_Ineq._31__9___h(0CC_1_2_3)___8___h(3)____9___log2(110494.01645100048)_|_9_|_CC.STATUS_ID: -8 _3 +9 _0CC_1_2_3  <= 150.782
 Statistics_Ineq._32__10___h(0CC_1_2_3)___9___h(3)____10___log2(110494.00329526383)_|_10_|_CC.STATUS_ID: -9 _3 +10 _0CC_1_2_3  <= 167.536
 Statistics_Ineq._33__h(0CC_1_2_3)___h(3)____log2(110494.0)_|_inf_|_CC.STATUS_ID: -1 _3 +1 _0CC_1_2_3  <= 16.7536
 Statistics_Ineq._34__1___h(0CCT1_2)___0___h(2)____1___log2(2.0)_|_1_|_CCT1.ID: +1 _0CCT1_2  <= 1
 Statistics_Ineq._35__2___h(0CCT1_2)___1___h(2)____2___log2(1.4142135623730951)_|_2_|_CCT1.ID: -1 _2 +2 _0CCT1_2  <= 1
 Statistics_Ineq._36__3___h(0CCT1_2)___2___h(2)____3___log2(1.2599210498948732)_|_3_|_CCT1.ID: -2 _2 +3 _0CCT1_2  <= 1
 Statistics_Ineq._37__4___h(0CCT1_2)___3___h(2)____4___log2(1.189207115002721)_|_4_|_CCT1.ID: -3 _2 +4 _0CCT1_2  <= 1
 Statistics_Ineq._38__5___h(0CCT1_2)___4___h(2)____5___log2(1.148698354997035)_|_5_|_CCT1.ID: -4 _2 +5 _0CCT1_2  <= 1
 Statistics_Ineq._39__6___h(0CCT1_2)___5___h(2)____6___log2(1.122462048309373)_|_6_|_CCT1.ID: -5 _2 +6 _0CCT1_2  <= 1
 Statistics_Ineq._40__7___h(0CCT1_2)___6___h(2)____7___log2(1.1040895136738123)_|_7_|_CCT1.ID: -6 _2 +7 _0CCT1_2  <= 1
 Statistics_Ineq._41__8___h(0CCT1_2)___7___h(2)____8___log2(1.0905077326652577)_|_8_|_CCT1.ID: -7 _2 +8 _0CCT1_2  <= 1
 Statistics_Ineq._42__9___h(0CCT1_2)___8___h(2)____9___log2(1.080059738892306)_|_9_|_CCT1.ID: -8 _2 +9 _0CCT1_2  <= 1
 Statistics_Ineq._43__10___h(0CCT1_2)___9___h(2)____10___log2(1.0717734625362931)_|_10_|_CCT1.ID: -9 _2 +10 _0CCT1_2  <= 1
 Statistics_Ineq._44__h(0CCT1_2)___h(2)____log2(1.0)_|_inf_|_CCT1.ID: -1 _2 +1 _0CCT1_2  <= 0
 Statistics_Ineq._45__1___h(0CCT2_3)___0___h(3)____1___log2(2.0)_|_1_|_CCT2.ID: +1 _0CCT2_3  <= 1
 Statistics_Ineq._46__2___h(0CCT2_3)___1___h(3)____2___log2(1.4142135623730951)_|_2_|_CCT2.ID: -1 _3 +2 _0CCT2_3  <= 1
 Statistics_Ineq._47__3___h(0CCT2_3)___2___h(3)____3___log2(1.2599210498948732)_|_3_|_CCT2.ID: -2 _3 +3 _0CCT2_3  <= 1
 Statistics_Ineq._48__4___h(0CCT2_3)___3___h(3)____4___log2(1.189207115002721)_|_4_|_CCT2.ID: -3 _3 +4 _0CCT2_3  <= 1
 Statistics_Ineq._49__5___h(0CCT2_3)___4___h(3)____5___log2(1.148698354997035)_|_5_|_CCT2.ID: -4 _3 +5 _0CCT2_3  <= 1
 Statistics_Ineq._50__6___h(0CCT2_3)___5___h(3)____6___log2(1.122462048309373)_|_6_|_CCT2.ID: -5 _3 +6 _0CCT2_3  <= 1
 Statistics_Ineq._51__7___h(0CCT2_3)___6___h(3)____7___log2(1.1040895136738123)_|_7_|_CCT2.ID: -6 _3 +7 _0CCT2_3  <= 1
 Statistics_Ineq._52__8___h(0CCT2_3)___7___h(3)____8___log2(1.0905077326652577)_|_8_|_CCT2.ID: -7 _3 +8 _0CCT2_3  <= 1
 Statistics_Ineq._53__9___h(0CCT2_3)___8___h(3)____9___log2(1.080059738892306)_|_9_|_CCT2.ID: -8 _3 +9 _0CCT2_3  <= 1
 Statistics_Ineq._54__10___h(0CCT2_3)___9___h(3)____10___log2(1.0717734625362931)_|_10_|_CCT2.ID: -9 _3 +10 _0CCT2_3  <= 1
 Statistics_Ineq._55__h(0CCT2_3)___h(3)____log2(1.0)_|_inf_|_CCT2.ID: -1 _3 +1 _0CCT2_3  <= 0
 Statistics_Ineq._56__1___h(0CN_4)___0___h(4)____1___log2(234997.0)_|_1_|_CN.ID: +1 _0CN_4  <= 17.8423
 Statistics_Ineq._57__2___h(0CN_4)___1___h(4)____2___log2(484.76489146801873)_|_2_|_CN.ID: -1 _4 +2 _0CN_4  <= 17.8423
 Statistics_Ineq._58__3___h(0CN_4)___2___h(4)____3___log2(61.709795330658544)_|_3_|_CN.ID: -2 _4 +3 _0CN_4  <= 17.8423
 Statistics_Ineq._59__4___h(0CN_4)___3___h(4)____4___log2(22.017377034243175)_|_4_|_CN.ID: -3 _4 +4 _0CN_4  <= 17.8423
 Statistics_Ineq._60__5___h(0CN_4)___4___h(4)____5___log2(11.863489865870786)_|_5_|_CN.ID: -4 _4 +5 _0CN_4  <= 17.8423
 Statistics_Ineq._61__6___h(0CN_4)___5___h(4)____6___log2(7.855558244368031)_|_6_|_CN.ID: -5 _4 +6 _0CN_4  <= 17.8423
 Statistics_Ineq._62__7___h(0CN_4)___6___h(4)____7___log2(5.851869288664952)_|_7_|_CN.ID: -6 _4 +7 _0CN_4  <= 17.8423
 Statistics_Ineq._63__8___h(0CN_4)___7___h(4)____8___log2(4.692267792256019)_|_8_|_CN.ID: -7 _4 +8 _0CN_4  <= 17.8423
 Statistics_Ineq._64__9___h(0CN_4)___8___h(4)____9___log2(3.95170668822707)_|_9_|_CN.ID: -8 _4 +9 _0CN_4  <= 17.8423
 Statistics_Ineq._65__10___h(0CN_4)___9___h(4)____10___log2(3.4443417173490185)_|_10_|_CN.ID: -9 _4 +10 _0CN_4  <= 17.8423
 Statistics_Ineq._66__h(0CN_4)___h(4)____log2(1.0)_|_inf_|_CN.ID: -1 _4 +1 _0CN_4  <= 0
 Statistics_Ineq._67__1___h(0CT_5)___0___h(5)____1___log2(2.0)_|_1_|_CT.ID: +1 _0CT_5  <= 1
 Statistics_Ineq._68__2___h(0CT_5)___1___h(5)____2___log2(1.4142135623730951)_|_2_|_CT.ID: -1 _5 +2 _0CT_5  <= 1
 Statistics_Ineq._69__3___h(0CT_5)___2___h(5)____3___log2(1.2599210498948732)_|_3_|_CT.ID: -2 _5 +3 _0CT_5  <= 1
 Statistics_Ineq._70__4___h(0CT_5)___3___h(5)____4___log2(1.189207115002721)_|_4_|_CT.ID: -3 _5 +4 _0CT_5  <= 1
 Statistics_Ineq._71__5___h(0CT_5)___4___h(5)____5___log2(1.148698354997035)_|_5_|_CT.ID: -4 _5 +5 _0CT_5  <= 1
 Statistics_Ineq._72__6___h(0CT_5)___5___h(5)____6___log2(1.122462048309373)_|_6_|_CT.ID: -5 _5 +6 _0CT_5  <= 1
 Statistics_Ineq._73__7___h(0CT_5)___6___h(5)____7___log2(1.1040895136738123)_|_7_|_CT.ID: -6 _5 +7 _0CT_5  <= 1
 Statistics_Ineq._74__8___h(0CT_5)___7___h(5)____8___log2(1.0905077326652577)_|_8_|_CT.ID: -7 _5 +8 _0CT_5  <= 1
 Statistics_Ineq._75__9___h(0CT_5)___8___h(5)____9___log2(1.080059738892306)_|_9_|_CT.ID: -8 _5 +9 _0CT_5  <= 1
 Statistics_Ineq._76__10___h(0CT_5)___9___h(5)____10___log2(1.0717734625362931)_|_10_|_CT.ID: -9 _5 +10 _0CT_5  <= 1
 Statistics_Ineq._77__h(0CT_5)___h(5)____log2(1.0)_|_inf_|_CT.ID: -1 _5 +1 _0CT_5  <= 0
 Statistics_Ineq._78__1___h(0IT1_6)___0___h(6)____1___log2(113.0)_|_1_|_IT1.ID: +1 _0IT1_6  <= 6.82018
 Statistics_Ineq._79__2___h(0IT1_6)___1___h(6)____2___log2(10.63014581273465)_|_2_|_IT1.ID: -1 _6 +2 _0IT1_6  <= 6.82018
 Statistics_Ineq._80__3___h(0IT1_6)___2___h(6)____3___log2(4.834588127111639)_|_3_|_IT1.ID: -2 _6 +3 _0IT1_6  <= 6.82018
 Statistics_Ineq._81__4___h(0IT1_6)___3___h(6)____4___log2(3.260390438695134)_|_4_|_IT1.ID: -3 _6 +4 _0IT1_6  <= 6.82018
 Statistics_Ineq._82__5___h(0IT1_6)___4___h(6)____5___log2(2.574042354407865)_|_5_|_IT1.ID: -4 _6 +5 _0IT1_6  <= 6.82018
 Statistics_Ineq._83__6___h(0IT1_6)___5___h(6)____6___log2(2.198769684871892)_|_6_|_IT1.ID: -5 _6 +6 _0IT1_6  <= 6.82018
 Statistics_Ineq._84__7___h(0IT1_6)___6___h(6)____7___log2(1.9647030552069988)_|_7_|_IT1.ID: -6 _6 +7 _0IT1_6  <= 6.82018
 Statistics_Ineq._85__8___h(0IT1_6)___7___h(6)____8___log2(1.8056551272862529)_|_8_|_IT1.ID: -7 _6 +8 _0IT1_6  <= 6.82018
 Statistics_Ineq._86__9___h(0IT1_6)___8___h(6)____9___log2(1.6909074089110399)_|_9_|_IT1.ID: -8 _6 +9 _0IT1_6  <= 6.82018
 Statistics_Ineq._87__10___h(0IT1_6)___9___h(6)____10___log2(1.6043822345089294)_|_10_|_IT1.ID: -9 _6 +10 _0IT1_6  <= 6.82018
 Statistics_Ineq._88__h(0IT1_6)___h(6)____log2(1.0)_|_inf_|_IT1.ID: -1 _6 +1 _0IT1_6  <= 0
 Statistics_Ineq._89__1___h(0IT2_7)___0___h(7)____1___log2(8.0)_|_1_|_IT2.ID: +1 _0IT2_7  <= 3
 Statistics_Ineq._90__2___h(0IT2_7)___1___h(7)____2___log2(2.8284271247461903)_|_2_|_IT2.ID: -1 _7 +2 _0IT2_7  <= 3
 Statistics_Ineq._91__3___h(0IT2_7)___2___h(7)____3___log2(2.0)_|_3_|_IT2.ID: -2 _7 +3 _0IT2_7  <= 3
 Statistics_Ineq._92__4___h(0IT2_7)___3___h(7)____4___log2(1.681792830507429)_|_4_|_IT2.ID: -3 _7 +4 _0IT2_7  <= 3
 Statistics_Ineq._93__5___h(0IT2_7)___4___h(7)____5___log2(1.5157165665103982)_|_5_|_IT2.ID: -4 _7 +5 _0IT2_7  <= 3
 Statistics_Ineq._94__6___h(0IT2_7)___5___h(7)____6___log2(1.414213562373095)_|_6_|_IT2.ID: -5 _7 +6 _0IT2_7  <= 3
 Statistics_Ineq._95__7___h(0IT2_7)___6___h(7)____7___log2(1.3459001926323562)_|_7_|_IT2.ID: -6 _7 +7 _0IT2_7  <= 3
 Statistics_Ineq._96__8___h(0IT2_7)___7___h(7)____8___log2(1.2968395546510096)_|_8_|_IT2.ID: -7 _7 +8 _0IT2_7  <= 3
 Statistics_Ineq._97__9___h(0IT2_7)___8___h(7)____9___log2(1.2599210498948732)_|_9_|_IT2.ID: -8 _7 +9 _0IT2_7  <= 3
 Statistics_Ineq._98__10___h(0IT2_7)___9___h(7)____10___log2(1.2311444133449163)_|_10_|_IT2.ID: -9 _7 +10 _0IT2_7  <= 3
 Statistics_Ineq._99__h(0IT2_7)___h(7)____log2(1.0)_|_inf_|_IT2.ID: -1 _7 +1 _0IT2_7  <= 0
 Statistics_Ineq._100__1___h(0K_8)___0___h(8)____1___log2(134170.0)_|_1_|_K.ID: +1 _0K_8  <= 17.0337
 Statistics_Ineq._101__2___h(0K_8)___1___h(8)____2___log2(366.29223305988893)_|_2_|_K.ID: -1 _8 +2 _0K_8  <= 17.0337
 Statistics_Ineq._102__3___h(0K_8)___2___h(8)____3___log2(51.19393035144834)_|_3_|_K.ID: -2 _8 +3 _0K_8  <= 17.0337
 Statistics_Ineq._103__4___h(0K_8)___3___h(8)____4___log2(19.138762579119085)_|_4_|_K.ID: -3 _8 +4 _0K_8  <= 17.0337
 Statistics_Ineq._104__5___h(0K_8)___4___h(8)____5___log2(10.605498428686793)_|_5_|_K.ID: -4 _8 +5 _0K_8  <= 17.0337
 Statistics_Ineq._105__6___h(0K_8)___5___h(8)____6___log2(7.154993385842389)_|_6_|_K.ID: -5 _8 +6 _0K_8  <= 17.0337
 Statistics_Ineq._106__7___h(0K_8)___6___h(8)____7___log2(5.401597291274521)_|_7_|_K.ID: -6 _8 +7 _0K_8  <= 17.0337
 Statistics_Ineq._107__8___h(0K_8)___7___h(8)____8___log2(4.374787146721436)_|_8_|_K.ID: -7 _8 +8 _0K_8  <= 17.0337
 Statistics_Ineq._108__9___h(0K_8)___8___h(8)____9___log2(3.713124327690797)_|_9_|_K.ID: -8 _8 +9 _0K_8  <= 17.0337
 Statistics_Ineq._109__10___h(0K_8)___9___h(8)____10___log2(3.2566084242178692)_|_10_|_K.ID: -9 _8 +10 _0K_8  <= 17.0337
 Statistics_Ineq._110__h(0K_8)___h(8)____log2(1.0)_|_inf_|_K.ID: -1 _8 +1 _0K_8  <= 0
 Statistics_Ineq._111__1___h(0KT_9)___0___h(9)____1___log2(7.0)_|_1_|_KT.ID: +1 _0KT_9  <= 2.80735
 Statistics_Ineq._112__2___h(0KT_9)___1___h(9)____2___log2(2.6457513110645907)_|_2_|_KT.ID: -1 _9 +2 _0KT_9  <= 2.80735
 Statistics_Ineq._113__3___h(0KT_9)___2___h(9)____3___log2(1.912931182772389)_|_3_|_KT.ID: -2 _9 +3 _0KT_9  <= 2.80735
 Statistics_Ineq._114__4___h(0KT_9)___3___h(9)____4___log2(1.6265765616977856)_|_4_|_KT.ID: -3 _9 +4 _0KT_9  <= 2.80735
 Statistics_Ineq._115__5___h(0KT_9)___4___h(9)____5___log2(1.4757731615945522)_|_5_|_KT.ID: -4 _9 +5 _0KT_9  <= 2.80735
 Statistics_Ineq._116__6___h(0KT_9)___5___h(9)____6___log2(1.3830875542684884)_|_6_|_KT.ID: -5 _9 +6 _0KT_9  <= 2.80735
 Statistics_Ineq._117__7___h(0KT_9)___6___h(9)____7___log2(1.3204692477561237)_|_7_|_KT.ID: -6 _9 +7 _0KT_9  <= 2.80735
 Statistics_Ineq._118__8___h(0KT_9)___7___h(9)____8___log2(1.2753731068584542)_|_8_|_KT.ID: -7 _9 +8 _0KT_9  <= 2.80735
 Statistics_Ineq._119__9___h(0KT_9)___8___h(9)____9___log2(1.2413658170152087)_|_9_|_KT.ID: -8 _9 +9 _0KT_9  <= 2.80735
 Statistics_Ineq._120__10___h(0KT_9)___9___h(9)____10___log2(1.214814044039067)_|_10_|_KT.ID: -9 _9 +10 _0KT_9  <= 2.80735
 Statistics_Ineq._121__h(0KT_9)___h(9)____log2(1.0)_|_inf_|_KT.ID: -1 _9 +1 _0KT_9  <= 0
 Statistics_Ineq._122__1___h(0MC_1_4_5)___0___h(1)____1___log2(959812.0)_|_1_|_MC.MOVIE_ID: +1 _0MC_1_4_5  <= 19.8724
 Statistics_Ineq._123__2___h(0MC_1_4_5)___1___h(1)____2___log2(3319.8042110943834)_|_2_|_MC.MOVIE_ID: -1 _1 +2 _0MC_1_4_5  <= 23.3938
 Statistics_Ineq._124__3___h(0MC_1_4_5)___2___h(1)____3___log2(601.6283416561748)_|_3_|_MC.MOVIE_ID: -2 _1 +3 _0MC_1_4_5  <= 27.6982
 Statistics_Ineq._125__4___h(0MC_1_4_5)___3___h(1)____4___log2(283.80874988834165)_|_4_|_MC.MOVIE_ID: -3 _1 +4 _0MC_1_4_5  <= 32.5951
 Statistics_Ineq._126__5___h(0MC_1_4_5)___4___h(1)____5___log2(190.19950765037845)_|_5_|_MC.MOVIE_ID: -4 _1 +5 _0MC_1_4_5  <= 37.8568
 Statistics_Ineq._127__6___h(0MC_1_4_5)___5___h(1)____6___log2(149.896738633156)_|_6_|_MC.MOVIE_ID: -5 _1 +6 _0MC_1_4_5  <= 43.367
 Statistics_Ineq._128__7___h(0MC_1_4_5)___6___h(1)____7___log2(128.9499555517412)_|_7_|_MC.MOVIE_ID: -6 _1 +7 _0MC_1_4_5  <= 49.0747
 Statistics_Ineq._129__8___h(0MC_1_4_5)___7___h(1)____8___log2(116.88883822725138)_|_8_|_MC.MOVIE_ID: -7 _1 +8 _0MC_1_4_5  <= 54.9519
 Statistics_Ineq._130__9___h(0MC_1_4_5)___8___h(1)____9___log2(109.52056835539781)_|_9_|_MC.MOVIE_ID: -8 _1 +9 _0MC_1_4_5  <= 60.9755
 Statistics_Ineq._131__10___h(0MC_1_4_5)___9___h(1)____10___log2(104.84819107118261)_|_10_|_MC.MOVIE_ID: -9 _1 +10 _0MC_1_4_5  <= 67.1216
 Statistics_Ineq._132__h(0MC_1_4_5)___h(1)____log2(94.0)_|_inf_|_MC.MOVIE_ID: -1 _1 +1 _0MC_1_4_5  <= 6.55459
 Statistics_Ineq._133__1___h(0MC_1_4_5)___0___h(5)____1___log2(2609129.0)_|_1_|_MC.COMPANY_TYPE_ID: +1 _0MC_1_4_5  <= 21.3151
 Statistics_Ineq._134__2___h(0MC_1_4_5)___1___h(5)____2___log2(1845430.977361386)_|_2_|_MC.COMPANY_TYPE_ID: -1 _5 +2 _0MC_1_4_5  <= 41.6311
 Statistics_Ineq._135__3___h(0MC_1_4_5)___2___h(5)____3___log2(1644535.5505828804)_|_3_|_MC.COMPANY_TYPE_ID: -2 _5 +3 _0MC_1_4_5  <= 61.9477
 Statistics_Ineq._136__4___h(0MC_1_4_5)___3___h(5)____4___log2(1552652.8676006738)_|_4_|_MC.COMPANY_TYPE_ID: -3 _5 +4 _0MC_1_4_5  <= 82.2652
 Statistics_Ineq._137__5___h(0MC_1_4_5)___4___h(5)____5___log2(1500166.817088087)_|_5_|_MC.COMPANY_TYPE_ID: -4 _5 +5 _0MC_1_4_5  <= 102.583
 Statistics_Ineq._138__6___h(0MC_1_4_5)___5___h(5)____6___log2(1466295.809685982)_|_6_|_MC.COMPANY_TYPE_ID: -5 _5 +6 _0MC_1_4_5  <= 122.902
 Statistics_Ineq._139__7___h(0MC_1_4_5)___6___h(5)____7___log2(1442680.6626064067)_|_7_|_MC.COMPANY_TYPE_ID: -6 _5 +7 _0MC_1_4_5  <= 143.222
 Statistics_Ineq._140__8___h(0MC_1_4_5)___7___h(5)____8___log2(1425312.9782620256)_|_8_|_MC.COMPANY_TYPE_ID: -7 _5 +8 _0MC_1_4_5  <= 163.543
 Statistics_Ineq._141__9___h(0MC_1_4_5)___8___h(5)____9___log2(1412031.354243233)_|_9_|_MC.COMPANY_TYPE_ID: -8 _5 +9 _0MC_1_4_5  <= 183.864
 Statistics_Ineq._142__10___h(0MC_1_4_5)___9___h(5)____10___log2(1401567.7204422245)_|_10_|_MC.COMPANY_TYPE_ID: -9 _5 +10 _0MC_1_4_5  <= 204.186
 Statistics_Ineq._143__h(0MC_1_4_5)___h(5)____log2(1334883.0)_|_inf_|_MC.COMPANY_TYPE_ID: -1 _5 +1 _0MC_1_4_5  <= 20.3483
 Statistics_Ineq._144__1___h(0MC_1_4_5)___0___h(4)____1___log2(2609129.0)_|_1_|_MC.COMPANY_ID: +1 _0MC_1_4_5  <= 21.3151
 Statistics_Ineq._145__2___h(0MC_1_4_5)___1___h(4)____2___log2(106883.15010795668)_|_2_|_MC.COMPANY_ID: -1 _4 +2 _0MC_1_4_5  <= 33.4113
 Statistics_Ineq._146__3___h(0MC_1_4_5)___2___h(4)____3___log2(75788.07259073698)_|_3_|_MC.COMPANY_ID: -2 _4 +3 _0MC_1_4_5  <= 48.629
 Statistics_Ineq._147__4___h(0MC_1_4_5)___3___h(4)____4___log2(68743.68174597787)_|_4_|_MC.COMPANY_ID: -3 _4 +4 _0MC_1_4_5  <= 64.2758
 Statistics_Ineq._148__5___h(0MC_1_4_5)___4___h(4)____5___log2(65836.53118034896)_|_5_|_MC.COMPANY_ID: -4 _4 +5 _0MC_1_4_5  <= 80.033
 Statistics_Ineq._149__6___h(0MC_1_4_5)___5___h(4)____6___log2(64352.605232193164)_|_6_|_MC.COMPANY_ID: -5 _4 +6 _0MC_1_4_5  <= 95.8423
 Statistics_Ineq._150__7___h(0MC_1_4_5)___6___h(4)____7___log2(63514.550164509055)_|_7_|_MC.COMPANY_ID: -6 _4 +7 _0MC_1_4_5  <= 111.684
 Statistics_Ineq._151__8___h(0MC_1_4_5)___7___h(4)____8___log2(63012.11279193569)_|_8_|_MC.COMPANY_ID: -7 _4 +8 _0MC_1_4_5  <= 127.547
 Statistics_Ineq._152__9___h(0MC_1_4_5)___8___h(4)____9___log2(62698.45498555785)_|_9_|_MC.COMPANY_ID: -8 _4 +9 _0MC_1_4_5  <= 143.425
 Statistics_Ineq._153__10___h(0MC_1_4_5)___9___h(4)____10___log2(62496.76791365353)_|_10_|_MC.COMPANY_ID: -9 _4 +10 _0MC_1_4_5  <= 159.315
 Statistics_Ineq._154__h(0MC_1_4_5)___h(4)____log2(62075.0)_|_inf_|_MC.COMPANY_ID: -1 _4 +1 _0MC_1_4_5  <= 15.9217
 Statistics_Ineq._155__1___h(0MI_1_6)___0___h(1)____1___log2(4559829.0)_|_1_|_MI.MOVIE_ID: +1 _0MI_1_6  <= 22.1205
 Statistics_Ineq._156__2___h(0MI_1_6)___1___h(1)____2___log2(21753.719658945687)_|_2_|_MI.MOVIE_ID: -1 _1 +2 _0MI_1_6  <= 28.8179
 Statistics_Ineq._157__3___h(0MI_1_6)___2___h(1)____3___log2(5527.7363888626605)_|_3_|_MI.MOVIE_ID: -2 _1 +3 _0MI_1_6  <= 37.2974
 Statistics_Ineq._158__4___h(0MI_1_6)___3___h(1)____4___log2(3539.5943436967755)_|_4_|_MI.MOVIE_ID: -3 _1 +4 _0MI_1_6  <= 47.1575
 Statistics_Ineq._159__5___h(0MI_1_6)___4___h(1)____5___log2(3106.303893988354)_|_5_|_MI.MOVIE_ID: -4 _1 +5 _0MI_1_6  <= 58.0049
 Statistics_Ineq._160__6___h(0MI_1_6)___5___h(1)____6___log2(2993.7440698993096)_|_6_|_MI.MOVIE_ID: -5 _1 +6 _0MI_1_6  <= 69.2864
 Statistics_Ineq._161__7___h(0MI_1_6)___6___h(1)____7___log2(2958.7564854880616)_|_7_|_MI.MOVIE_ID: -6 _1 +7 _0MI_1_6  <= 80.7154
 Statistics_Ineq._162__8___h(0MI_1_6)___7___h(1)____8___log2(2946.1084017705402)_|_8_|_MI.MOVIE_ID: -7 _1 +8 _0MI_1_6  <= 92.1968
 Statistics_Ineq._163__9___h(0MI_1_6)___8___h(1)____9___log2(2941.037811742483)_|_9_|_MI.MOVIE_ID: -8 _1 +9 _0MI_1_6  <= 103.699
 Statistics_Ineq._164__10___h(0MI_1_6)___9___h(1)____10___log2(2938.861369246534)_|_10_|_MI.MOVIE_ID: -9 _1 +10 _0MI_1_6  <= 115.21
 Statistics_Ineq._165__h(0MI_1_6)___h(1)____log2(2937.0)_|_inf_|_MI.MOVIE_ID: -1 _1 +1 _0MI_1_6  <= 11.5201
 Statistics_Ineq._166__1___h(0MI_1_6)___0___h(6)____1___log2(14835720.0)_|_1_|_MI.INFO_TYPE_ID: +1 _0MI_1_6  <= 23.8226
 Statistics_Ineq._167__2___h(0MI_1_6)___1___h(6)____2___log2(4572034.223464868)_|_2_|_MI.INFO_TYPE_ID: -1 _6 +2 _0MI_1_6  <= 44.2488
 Statistics_Ineq._168__3___h(0MI_1_6)___2___h(6)____3___log2(3486243.0281909658)_|_3_|_MI.INFO_TYPE_ID: -2 _6 +3 _0MI_1_6  <= 65.1997
 Statistics_Ineq._169__4___h(0MI_1_6)___3___h(6)____4___log2(3193457.0484238626)_|_4_|_MI.INFO_TYPE_ID: -3 _6 +4 _0MI_1_6  <= 86.4268
 Statistics_Ineq._170__5___h(0MI_1_6)___4___h(6)____5___log2(3095215.672236246)_|_5_|_MI.INFO_TYPE_ID: -4 _6 +5 _0MI_1_6  <= 107.808
 Statistics_Ineq._171__6___h(0MI_1_6)___5___h(6)____6___log2(3059428.0080923685)_|_6_|_MI.INFO_TYPE_ID: -5 _6 +6 _0MI_1_6  <= 129.269
 Statistics_Ineq._172__7___h(0MI_1_6)___6___h(6)____7___log2(3045794.1446837164)_|_7_|_MI.INFO_TYPE_ID: -6 _6 +7 _0MI_1_6  <= 150.769
 Statistics_Ineq._173__8___h(0MI_1_6)___7___h(6)____8___log2(3040432.0968020344)_|_8_|_MI.INFO_TYPE_ID: -7 _6 +8 _0MI_1_6  <= 172.287
 Statistics_Ineq._174__9___h(0MI_1_6)___8___h(6)____9___log2(3038268.697191814)_|_9_|_MI.INFO_TYPE_ID: -8 _6 +9 _0MI_1_6  <= 193.813
 Statistics_Ineq._175__10___h(0MI_1_6)___9___h(6)____10___log2(3037376.9198407093)_|_10_|_MI.INFO_TYPE_ID: -9 _6 +10 _0MI_1_6  <= 215.344
 Statistics_Ineq._176__h(0MI_1_6)___h(6)____log2(3036719.0)_|_inf_|_MI.INFO_TYPE_ID: -1 _6 +1 _0MI_1_6  <= 21.5341
 Statistics_Ineq._177__1___h(0MI_IDX_1_7)___0___h(1)____1___log2(393476.0)_|_1_|_MI_IDX.MOVIE_ID: +1 _0MI_IDX_1_7  <= 18.5859
 Statistics_Ineq._178__2___h(0MI_IDX_1_7)___1___h(1)____2___log2(1086.9535408654779)_|_2_|_MI_IDX.MOVIE_ID: -1 _1 +2 _0MI_IDX_1_7  <= 20.1721
 Statistics_Ineq._179__3___h(0MI_IDX_1_7)___2___h(1)____3___log2(152.52845836363062)_|_3_|_MI_IDX.MOVIE_ID: -2 _1 +3 _0MI_IDX_1_7  <= 21.7588
 Statistics_Ineq._180__4___h(0MI_IDX_1_7)___3___h(1)____4___log2(57.14300174721896)_|_4_|_MI_IDX.MOVIE_ID: -3 _1 +4 _0MI_IDX_1_7  <= 23.346
 Statistics_Ineq._181__5___h(0MI_IDX_1_7)___4___h(1)____5___log2(31.708466820913753)_|_5_|_MI_IDX.MOVIE_ID: -4 _1 +5 _0MI_IDX_1_7  <= 24.934
 Statistics_Ineq._182__6___h(0MI_IDX_1_7)___5___h(1)____6___log2(21.41409410347964)_|_6_|_MI_IDX.MOVIE_ID: -5 _1 +6 _0MI_IDX_1_7  <= 26.5229
 Statistics_Ineq._183__7___h(0MI_IDX_1_7)___6___h(1)____7___log2(16.18034996202425)_|_7_|_MI_IDX.MOVIE_ID: -6 _1 +7 _0MI_IDX_1_7  <= 28.1132
 Statistics_Ineq._184__8___h(0MI_IDX_1_7)___7___h(1)____8___log2(13.115034075048861)_|_8_|_MI_IDX.MOVIE_ID: -7 _1 +8 _0MI_IDX_1_7  <= 29.7052
 Statistics_Ineq._185__9___h(0MI_IDX_1_7)___8___h(1)____9___log2(11.140339020475501)_|_9_|_MI_IDX.MOVIE_ID: -8 _1 +9 _0MI_IDX_1_7  <= 31.2995
 Statistics_Ineq._186__10___h(0MI_IDX_1_7)___9___h(1)____10___log2(9.778954484741686)_|_10_|_MI_IDX.MOVIE_ID: -9 _1 +10 _0MI_IDX_1_7  <= 32.8968
 Statistics_Ineq._187__h(0MI_IDX_1_7)___h(1)____log2(4.0)_|_inf_|_MI_IDX.MOVIE_ID: -1 _1 +1 _0MI_IDX_1_7  <= 2
 Statistics_Ineq._188__1___h(0MI_IDX_1_7)___0___h(7)____1___log2(1380035.0)_|_1_|_MI_IDX.INFO_TYPE_ID: +1 _0MI_IDX_1_7  <= 20.3963
 Statistics_Ineq._189__2___h(0MI_IDX_1_7)___1___h(7)____2___log2(796613.5069624416)_|_2_|_MI_IDX.INFO_TYPE_ID: -1 _7 +2 _0MI_IDX_1_7  <= 39.207
 Statistics_Ineq._190__3___h(0MI_IDX_1_7)___2___h(7)____3___log2(663326.6336354722)_|_3_|_MI_IDX.INFO_TYPE_ID: -2 _7 +3 _0MI_IDX_1_7  <= 58.0181
 Statistics_Ineq._191__4___h(0MI_IDX_1_7)___3___h(7)____4___log2(605295.3404071796)_|_4_|_MI_IDX.INFO_TYPE_ID: -3 _7 +4 _0MI_IDX_1_7  <= 76.8291
 Statistics_Ineq._192__5___h(0MI_IDX_1_7)___4___h(7)____5___log2(572942.8024026672)_|_5_|_MI_IDX.INFO_TYPE_ID: -4 _7 +5 _0MI_IDX_1_7  <= 95.6402
 Statistics_Ineq._193__6___h(0MI_IDX_1_7)___5___h(7)____6___log2(552340.9291093226)_|_6_|_MI_IDX.INFO_TYPE_ID: -5 _7 +6 _0MI_IDX_1_7  <= 114.451
 Statistics_Ineq._194__7___h(0MI_IDX_1_7)___6___h(7)____7___log2(538080.4290580386)_|_7_|_MI_IDX.INFO_TYPE_ID: -6 _7 +7 _0MI_IDX_1_7  <= 133.262
 Statistics_Ineq._195__8___h(0MI_IDX_1_7)___7___h(7)____8___log2(527627.1974005605)_|_8_|_MI_IDX.INFO_TYPE_ID: -7 _7 +8 _0MI_IDX_1_7  <= 152.073
 Statistics_Ineq._196__9___h(0MI_IDX_1_7)___8___h(7)____9___log2(519637.5060761928)_|_9_|_MI_IDX.INFO_TYPE_ID: -8 _7 +9 _0MI_IDX_1_7  <= 170.884
 Statistics_Ineq._197__10___h(0MI_IDX_1_7)___9___h(7)____10___log2(513332.9508175439)_|_10_|_MI_IDX.INFO_TYPE_ID: -9 _7 +10 _0MI_IDX_1_7  <= 189.695
 Statistics_Ineq._198__h(0MI_IDX_1_7)___h(7)____log2(459925.0)_|_inf_|_MI_IDX.INFO_TYPE_ID: -1 _7 +1 _0MI_IDX_1_7  <= 18.811
 Statistics_Ineq._199__1___h(0MK_1_8)___0___h(1)____1___log2(3645762.0)_|_1_|_MK.MOVIE_ID: +1 _0MK_1_8  <= 21.7978
 Statistics_Ineq._200__2___h(0MK_1_8)___1___h(1)____2___log2(16089.289294434357)_|_2_|_MK.MOVIE_ID: -1 _1 +2 _0MK_1_8  <= 27.9476
 Statistics_Ineq._201__3___h(0MK_1_8)___2___h(1)____3___log2(3343.4183696630357)_|_3_|_MK.MOVIE_ID: -2 _1 +3 _0MK_1_8  <= 35.1213
 Statistics_Ineq._202__4___h(0MK_1_8)___3___h(1)____4___log2(1671.5371915245896)_|_4_|_MK.MOVIE_ID: -3 _1 +4 _0MK_1_8  <= 42.8278
 Statistics_Ineq._203__5___h(0MK_1_8)___4___h(1)____5___log2(1148.4788080154324)_|_5_|_MK.MOVIE_ID: -4 _1 +5 _0MK_1_8  <= 50.8275
 Statistics_Ineq._204__6___h(0MK_1_8)___5___h(1)____6___log2(914.9417381765562)_|_6_|_MK.MOVIE_ID: -5 _1 +6 _0MK_1_8  <= 59.0252
 Statistics_Ineq._205__7___h(0MK_1_8)___6___h(1)____7___log2(789.6812830661407)_|_7_|_MK.MOVIE_ID: -6 _1 +7 _0MK_1_8  <= 67.3759
 Statistics_Ineq._206__8___h(0MK_1_8)___7___h(1)____8___log2(714.8129944782467)_|_8_|_MK.MOVIE_ID: -7 _1 +8 _0MK_1_8  <= 75.8514
 Statistics_Ineq._207__9___h(0MK_1_8)___8___h(1)____9___log2(666.8052492847414)_|_9_|_MK.MOVIE_ID: -8 _1 +9 _0MK_1_8  <= 84.4301
 Statistics_Ineq._208__10___h(0MK_1_8)___9___h(1)____10___log2(634.4708714390166)_|_10_|_MK.MOVIE_ID: -9 _1 +10 _0MK_1_8  <= 93.0941
 Statistics_Ineq._209__h(0MK_1_8)___h(1)____log2(540.0)_|_inf_|_MK.MOVIE_ID: -1 _1 +1 _0MK_1_8  <= 9.07682
 Statistics_Ineq._210__1___h(0MK_1_8)___0___h(8)____1___log2(4523930.0)_|_1_|_MK.KEYWORD_ID: +1 _0MK_1_8  <= 22.1091
 Statistics_Ineq._211__2___h(0MK_1_8)___1___h(8)____2___log2(142540.5972767057)_|_2_|_MK.KEYWORD_ID: -1 _8 +2 _0MK_1_8  <= 34.242
 Statistics_Ineq._212__3___h(0MK_1_8)___2___h(8)____3___log2(91933.95257125433)_|_3_|_MK.KEYWORD_ID: -2 _8 +3 _0MK_1_8  <= 49.4649
 Statistics_Ineq._213__4___h(0MK_1_8)___3___h(8)____4___log2(82003.06320560009)_|_4_|_MK.KEYWORD_ID: -3 _8 +4 _0MK_1_8  <= 65.2936
 Statistics_Ineq._214__5___h(0MK_1_8)___4___h(8)____5___log2(78043.67590316865)_|_5_|_MK.KEYWORD_ID: -4 _8 +5 _0MK_1_8  <= 81.26
 Statistics_Ineq._215__6___h(0MK_1_8)___5___h(8)____6___log2(76018.0546797557)_|_6_|_MK.KEYWORD_ID: -5 _8 +6 _0MK_1_8  <= 97.2843
 Statistics_Ineq._216__7___h(0MK_1_8)___6___h(8)____7___log2(74849.51552507188)_|_7_|_MK.KEYWORD_ID: -6 _8 +7 _0MK_1_8  <= 113.342
 Statistics_Ineq._217__8___h(0MK_1_8)___7___h(8)____8___log2(74123.73792740938)_|_8_|_MK.KEYWORD_ID: -7 _8 +8 _0MK_1_8  <= 129.421
 Statistics_Ineq._218__9___h(0MK_1_8)___8___h(8)____9___log2(73649.49002095767)_|_9_|_MK.KEYWORD_ID: -8 _8 +9 _0MK_1_8  <= 145.515
 Statistics_Ineq._219__10___h(0MK_1_8)___9___h(8)____10___log2(73328.0635960675)_|_10_|_MK.KEYWORD_ID: -9 _8 +10 _0MK_1_8  <= 161.621
 Statistics_Ineq._220__h(0MK_1_8)___h(8)____log2(72496.0)_|_inf_|_MK.KEYWORD_ID: -1 _8 +1 _0MK_1_8  <= 16.1456
 Statistics_Ineq._221__1___h(0T_1_9)___0___h(9)____1___log2(2528312.0)_|_1_|_T.KIND_ID: +1 _0T_1_9  <= 21.2697
 Statistics_Ineq._222__2___h(0T_1_9)___1___h(9)____2___log2(1689230.7620186177)_|_2_|_T.KIND_ID: -1 _9 +2 _0T_1_9  <= 41.3759
 Statistics_Ineq._223__3___h(0T_1_9)___2___h(9)____3___log2(1583443.913864148)_|_3_|_T.KIND_ID: -2 _9 +3 _0T_1_9  <= 61.7839
 Statistics_Ineq._224__4___h(0T_1_9)___3___h(9)____4___log2(1556252.4759197517)_|_4_|_T.KIND_ID: -3 _9 +4 _0T_1_9  <= 82.2786
 Statistics_Ineq._225__5___h(0T_1_9)___4___h(9)____5___log2(1547750.1405598721)_|_5_|_T.KIND_ID: -4 _9 +5 _0T_1_9  <= 102.809
 Statistics_Ineq._226__6___h(0T_1_9)___5___h(9)____6___log2(1544874.3860783328)_|_6_|_T.KIND_ID: -5 _9 +6 _0T_1_9  <= 123.354
 Statistics_Ineq._227__7___h(0T_1_9)___6___h(9)____7___log2(1543857.6838300007)_|_7_|_T.KIND_ID: -6 _9 +7 _0T_1_9  <= 143.907
 Statistics_Ineq._228__8___h(0T_1_9)___7___h(9)____8___log2(1543487.2544881583)_|_8_|_T.KIND_ID: -7 _9 +8 _0T_1_9  <= 164.462
 Statistics_Ineq._229__9___h(0T_1_9)___8___h(9)____9___log2(1543349.256940834)_|_9_|_T.KIND_ID: -8 _9 +9 _0T_1_9  <= 185.019
 Statistics_Ineq._230__10___h(0T_1_9)___9___h(9)____10___log2(1543296.959836952)_|_10_|_T.KIND_ID: -9 _9 +10 _0T_1_9  <= 205.576
 Statistics_Ineq._231__h(0T_1_9)___h(9)____log2(1543264.0)_|_inf_|_T.KIND_ID: -1 _9 +1 _0T_1_9  <= 20.5576
 Statistics_Ineq._232__1___h(0T_1_9)___0___h(1)____1___log2(131072.0)_|_1_|_T.ID: +1 _0T_1_9  <= 17
 Statistics_Ineq._233__2___h(0T_1_9)___1___h(1)____2___log2(362.03867196751236)_|_2_|_T.ID: -1 _1 +2 _0T_1_9  <= 17
 Statistics_Ineq._234__3___h(0T_1_9)___2___h(1)____3___log2(50.79683366298237)_|_3_|_T.ID: -2 _1 +3 _0T_1_9  <= 17
 Statistics_Ineq._235__4___h(0T_1_9)___3___h(1)____4___log2(19.027313840043536)_|_4_|_T.ID: -3 _1 +4 _0T_1_9  <= 17
 Statistics_Ineq._236__5___h(0T_1_9)___4___h(1)____5___log2(10.556063286183155)_|_5_|_T.ID: -4 _1 +5 _0T_1_9  <= 17
 Statistics_Ineq._237__6___h(0T_1_9)___5___h(1)____6___log2(7.127189745122713)_|_6_|_T.ID: -5 _1 +6 _0T_1_9  <= 17
 Statistics_Ineq._238__7___h(0T_1_9)___6___h(1)____7___log2(5.383600770529424)_|_7_|_T.ID: -6 _1 +7 _0T_1_9  <= 17
 Statistics_Ineq._239__8___h(0T_1_9)___7___h(1)____8___log2(4.362030930661031)_|_8_|_T.ID: -7 _1 +8 _0T_1_9  <= 17
 Statistics_Ineq._240__9___h(0T_1_9)___8___h(1)____9___log2(3.7034988491491614)_|_9_|_T.ID: -8 _1 +9 _0T_1_9  <= 17
 Statistics_Ineq._241__10___h(0T_1_9)___9___h(1)____10___log2(3.2490095854249423)_|_10_|_T.ID: -9 _1 +10 _0T_1_9  <= 17
 Statistics_Ineq._242__h(0T_1_9)___h(1)____log2(1.0)_|_inf_|_T.ID: -1 _1 +1 _0T_1_9  <= 0
Bounds
 0 <= _1
 0 <= _2
 0 <= _3
 0 <= _4
 0 <= _5
 0 <= _6
 0 <= _7
 0 <= _8
 0 <= _9
 0 <= _0CC
 0 <= _0CC_1_2_3
 0 <= _0CCT1
 0 <= _0CCT1_2
 0 <= _0CCT2
 0 <= _0CCT2_3
 0 <= _0CN
 0 <= _0CN_4
 0 <= _0CT
 0 <= _0CT_5
 0 <= _0IT1
 0 <= _0IT1_6
 0 <= _0IT2
 0 <= _0IT2_7
 0 <= _0K
 0 <= _0K_8
 0 <= _0KT
 0 <= _0KT_9
 0 <= _0MC
 0 <= _0MC_1_4_5
 0 <= _0MI
 0 <= _0MI_1_6
 0 <= _0MI_IDX
 0 <= _0MI_IDX_1_7
 0 <= _0MK
 0 <= _0MK_1_8
 0 <= _0T
 0 <= _0T_1_9
End
